 &control
   calculation='bands'
   prefix='silicon',
   pseudo_dir = 'pseudo/',
   outdir =  'tmp/',
 /
 &system    
    ibrav=  2, celldm(1) =10.7, nat=  2, ntyp= 1,
    ecutwfc = 20.0, 
    nbnd = 8
 /
 &electrons
 /
ATOMIC_SPECIES
 Si  28.086  Si.pz-vbc.UPF
ATOMIC_POSITIONS alat
 Si 0.00 0.00 0.00 
 Si 0.25 0.25 0.25 
K_POINTS tpiba
#  tpiba = k-points in units of 2pi/a
#  number of k-points
 36
#  kx, ky, kz, wk  (wk=symmetry weight is ignored in bands calculations)

   0.9 0.0 0.0   0
   0.9 0.0 0.1   1
   0.9 0.0 0.2   2
   0.9 0.0 0.30000000000000004   3
   0.9 0.0 0.4   4
   0.9 0.0 0.5   5
   0.9 0.0 0.6000000000000001   6
   0.9 0.0 0.7000000000000001   7
   0.9 0.0 0.8   8
   0.9 0.0 0.9   9
   0.9 0.1 0.0  10
   0.9 0.1 0.1  11
   0.9 0.1 0.2  12
   0.9 0.1 0.30000000000000004  13
   0.9 0.1 0.4  14
   0.9 0.1 0.5  15
   0.9 0.1 0.6000000000000001  16
   0.9 0.1 0.7000000000000001  17
   0.9 0.1 0.8  18
   0.9 0.1 0.9  19
   0.9 0.2 0.0  20
   0.9 0.2 0.1  21
   0.9 0.2 0.2  22
   0.9 0.2 0.30000000000000004  23
   0.9 0.2 0.4  24
   0.9 0.2 0.5  25
   0.9 0.2 0.6000000000000001  26
   0.9 0.2 0.7000000000000001  27
   0.9 0.2 0.8  28
   0.9 0.2 0.9  29
   0.9 0.30000000000000004 0.0  30
   0.9 0.30000000000000004 0.1  31
   0.9 0.30000000000000004 0.2  32
   0.9 0.30000000000000004 0.30000000000000004  33
   0.9 0.30000000000000004 0.4  34
   0.9 0.30000000000000004 0.5  35
   0.9 0.30000000000000004 0.6000000000000001  36
   0.9 0.30000000000000004 0.7000000000000001  37
   0.9 0.30000000000000004 0.8  38
   0.9 0.30000000000000004 0.9  39
   0.9 0.4 0.0  40
   0.9 0.4 0.1  41
   0.9 0.4 0.2  42
   0.9 0.4 0.30000000000000004  43
   0.9 0.4 0.4  44
   0.9 0.4 0.5  45
   0.9 0.4 0.6000000000000001  46
   0.9 0.4 0.7000000000000001  47
   0.9 0.4 0.8  48
   0.9 0.4 0.9  49
   0.9 0.5 0.0  50
   0.9 0.5 0.1  51
   0.9 0.5 0.2  52
   0.9 0.5 0.30000000000000004  53
   0.9 0.5 0.4  54
   0.9 0.5 0.5  55
   0.9 0.5 0.6000000000000001  56
   0.9 0.5 0.7000000000000001  57
   0.9 0.5 0.8  58
   0.9 0.5 0.9  59
   0.9 0.6000000000000001 0.0  60
   0.9 0.6000000000000001 0.1  61
   0.9 0.6000000000000001 0.2  62
   0.9 0.6000000000000001 0.30000000000000004  63
   0.9 0.6000000000000001 0.4  64
   0.9 0.6000000000000001 0.5  65
   0.9 0.6000000000000001 0.6000000000000001  66
   0.9 0.6000000000000001 0.7000000000000001  67
   0.9 0.6000000000000001 0.8  68
   0.9 0.6000000000000001 0.9  69
   0.9 0.7000000000000001 0.0  70
   0.9 0.7000000000000001 0.1  71
   0.9 0.7000000000000001 0.2  72
   0.9 0.7000000000000001 0.30000000000000004  73
   0.9 0.7000000000000001 0.4  74
   0.9 0.7000000000000001 0.5  75
   0.9 0.7000000000000001 0.6000000000000001  76
   0.9 0.7000000000000001 0.7000000000000001  77
   0.9 0.7000000000000001 0.8  78
   0.9 0.7000000000000001 0.9  79
   0.9 0.8 0.0  80
   0.9 0.8 0.1  81
   0.9 0.8 0.2  82
   0.9 0.8 0.30000000000000004  83
   0.9 0.8 0.4  84
   0.9 0.8 0.5  85
   0.9 0.8 0.6000000000000001  86
   0.9 0.8 0.7000000000000001  87
   0.9 0.8 0.8  88
   0.9 0.8 0.9  89
   0.9 0.9 0.0  90
   0.9 0.9 0.1  91
   0.9 0.9 0.2  92
   0.9 0.9 0.30000000000000004  93
   0.9 0.9 0.4  94
   0.9 0.9 0.5  95
   0.9 0.9 0.6000000000000001  96
   0.9 0.9 0.7000000000000001  97
   0.9 0.9 0.8  98
   0.9 0.9 0.9  99
