 &control
   calculation='scf'
   prefix='silicon',
   pseudo_dir = 'pseudo/',
   outdir =  'tmp/',
 /
 &system    
    ibrav=  2, celldm(1) =10.7, nat=  2, ntyp= 1,
    ecutwfc = 40
    nbnd = 8
 /
 &electrons
    mixing_beta = 0.6
 /
ATOMIC_SPECIES
 Si  28.086  Si.pz-vbc.UPF
ATOMIC_POSITIONS alat
 Si 0.00 0.00 0.00 
 Si 0.25 0.25 0.25 
K_POINTS tpiba
#  tpiba = k-points in units of 2pi/a
#  number of k-points

   51
   0.1000 0.8000 0.0000   0
   0.1000 0.8000 0.0200   1
   0.1000 0.8000 0.0400   2
   0.1000 0.8000 0.0600   3
   0.1000 0.8000 0.0800   4
   0.1000 0.8000 0.1000   5
   0.1000 0.8000 0.1200   6
   0.1000 0.8000 0.1400   7
   0.1000 0.8000 0.1600   8
   0.1000 0.8000 0.1800   9
   0.1000 0.8000 0.2000  10
   0.1000 0.8000 0.2200  11
   0.1000 0.8000 0.2400  12
   0.1000 0.8000 0.2600  13
   0.1000 0.8000 0.2800  14
   0.1000 0.8000 0.3000  15
   0.1000 0.8000 0.3200  16
   0.1000 0.8000 0.3400  17
   0.1000 0.8000 0.3600  18
   0.1000 0.8000 0.3800  19
   0.1000 0.8000 0.4000  20
   0.1000 0.8000 0.4200  21
   0.1000 0.8000 0.4400  22
   0.1000 0.8000 0.4600  23
   0.1000 0.8000 0.4800  24
   0.1000 0.8000 0.5000  25
   0.1000 0.8000 0.5200  26
   0.1000 0.8000 0.5400  27
   0.1000 0.8000 0.5600  28
   0.1000 0.8000 0.5800  29
   0.1000 0.8000 0.6000  30
   0.1000 0.8000 0.6200  31
   0.1000 0.8000 0.6400  32
   0.1000 0.8000 0.6600  33
   0.1000 0.8000 0.6800  34
   0.1000 0.8000 0.7000  35
   0.1000 0.8000 0.7200  36
   0.1000 0.8000 0.7400  37
   0.1000 0.8000 0.7600  38
   0.1000 0.8000 0.7800  39
   0.1000 0.8000 0.8000  40
   0.1000 0.8000 0.8200  41
   0.1000 0.8000 0.8400  42
   0.1000 0.8000 0.8600  43
   0.1000 0.8000 0.8800  44
   0.1000 0.8000 0.9000  45
   0.1000 0.8000 0.9200  46
   0.1000 0.8000 0.9400  47
   0.1000 0.8000 0.9600  48
   0.1000 0.8000 0.9800  49
   0.1000 0.8000 1.0000  50
