 &control
   calculation='bands'
   prefix='silicon',
   pseudo_dir = 'pseudo/',
   outdir =  'tmp/',
 /
 &system    
    ibrav=  2, celldm(1) =10.7, nat=  2, ntyp= 1,
    ecutwfc = 20.0, 
    nbnd = 8
 /
 &electrons
 /
ATOMIC_SPECIES
 Si  28.086  Si.pz-vbc.UPF
ATOMIC_POSITIONS alat
 Si 0.00 0.00 0.00 
 Si 0.25 0.25 0.25 
K_POINTS tpiba
#  tpiba = k-points in units of 2pi/a
#  number of k-points

   10
   0.9 0.9 0.0   0
   0.9 0.9 0.1   1
   0.9 0.9 0.2   2
   0.9 0.9 0.3   3
   0.9 0.9 0.4   4
   0.9 0.9 0.5   5
   0.9 0.9 0.6   6
   0.9 0.9 0.7   7
   0.9 0.9 0.8   8
   0.9 0.9 0.9   9
