 &control
   calculation='bands'
   prefix='silicon',
   pseudo_dir = 'pseudo/',
   outdir =  'tmp/',
 /
 &system    
    ibrav=  2, celldm(1) =10.7, nat=  2, ntyp= 1,
    ecutwfc = 20.0, 
    nbnd = 8
 /
 &electrons
 /
ATOMIC_SPECIES
 Si  28.086  Si.pz-vbc.UPF
ATOMIC_POSITIONS alat
 Si 0.00 0.00 0.00 
 Si 0.25 0.25 0.25 
K_POINTS tpiba
#  tpiba = k-points in units of 2pi/a
#  number of k-points
 36
#  kx, ky, kz, wk  (wk=symmetry weight is ignored in bands calculations)

   0.5 0.5 0.5  0
   0.4 0.4 0.4  1
   0.3 0.3 0.3  2
   0.2 0.2 0.2  3
   0.1 0.1 0.1  4
   0.0 0.0 0.0  5
   0.8 0.0 0.1  6
   0.8 0.0 0.2  7
   0.8 0.0 0.3  8
   0.8 0.0 0.4  9
   0.8 0.0 0.5 10
   0.8 0.0 0.6 11
   0.8 0.0 0.7 12
   0.8 0.0 0.8 13
   0.8 0.0 0.9 14
   0.8 0.0 1.0 15
   0.8 0.1 1.0 16
   0.8 0.2 1.0 17
   0.8 0.3 1.0 18
   0.8 0.4 1.0 19
   0.8 0.5 1.0 20
   0.8 0.6 1.0 21
   0.8 0.7 1.0 22
   0.8 0.8 1.0 23
   0.8 0.9 1.0 24
   0.8 1.0 1.0 25
   0.8 0.9 0.9 26
   0.8 0.8 0.8 27
   0.8 0.7 0.7 28
   0.8 0.6 0.6 29
   0.8 0.5 0.5 30
   0.8 0.4 0.4 31
   0.8 0.3 0.3 32
   0.8 0.2 0.2 33
   0.8 0.1 0.1 34
   0.8 0.0 0.0 35
