&BANDS
  outdir =  'tmp/',
  prefix = 'silicon',
  filband = 'si_bands.dat',
/
