 &control
   calculation='bands'
   prefix='silicon',
   pseudo_dir = 'pseudo/',
   outdir =  'tmp/',
 /
 &system    
    ibrav=  2, celldm(1) =10.365740966796876, nat=  2, ntyp= 1,
    ecutwfc = 30.0, 
    nbnd = 8
 /
 &electrons
    conv_thr=1e-8
 /
ATOMIC_SPECIES
 Si  28.0855 Si.pbe-rrkj.UPF
ATOMIC_POSITIONS alat
 Si 0.00 0.00 0.00 
 Si 0.25 0.25 0.25 
K_POINTS tpiba
#  tpiba = k-points in units of 2pi/a
#  number of k-points

   20
   0.0000 0.0000 0.0000   0
   0.0263 0.0263 0.0263   1
   0.0526 0.0526 0.0526   2
   0.0789 0.0789 0.0789   3
   0.1053 0.1053 0.1053   4
   0.1316 0.1316 0.1316   5
   0.1579 0.1579 0.1579   6
   0.1842 0.1842 0.1842   7
   0.2105 0.2105 0.2105   8
   0.2368 0.2368 0.2368   9
   0.2632 0.2632 0.2632  10
   0.2895 0.2895 0.2895  11
   0.3158 0.3158 0.3158  12
   0.3421 0.3421 0.3421  13
   0.3684 0.3684 0.3684  14
   0.3947 0.3947 0.3947  15
   0.4211 0.4211 0.4211  16
   0.4474 0.4474 0.4474  17
   0.4737 0.4737 0.4737  18
   0.5000 0.5000 0.5000  19
