 &control
   calculation='bands'
   prefix='silicon',
   pseudo_dir = 'pseudo/',
   outdir =  'tmp/',
 /
 &system    
    ibrav=  2, celldm(1) =10.7, nat=  2, ntyp= 1,
    ecutwfc = 50.0, 
    nbnd = 8
 /
 &electrons
    conv_thr=1e-8
 /
ATOMIC_SPECIES
 Si  28.0855 Si.pbe-rrkj.UPF
ATOMIC_POSITIONS alat
 Si 0.00 0.00 0.00 
 Si 0.25 0.25 0.25 
K_POINTS tpiba
#  tpiba = k-points in units of 2pi/a
#  number of k-points

   41
   -1.0000 -0.8000 -1.0000   0
   -1.0000 -0.8000 -0.9500   1
   -1.0000 -0.8000 -0.9000   2
   -1.0000 -0.8000 -0.8500   3
   -1.0000 -0.8000 -0.8000   4
   -1.0000 -0.8000 -0.7500   5
   -1.0000 -0.8000 -0.7000   6
   -1.0000 -0.8000 -0.6500   7
   -1.0000 -0.8000 -0.6000   8
   -1.0000 -0.8000 -0.5500   9
   -1.0000 -0.8000 -0.5000  10
   -1.0000 -0.8000 -0.4500  11
   -1.0000 -0.8000 -0.4000  12
   -1.0000 -0.8000 -0.3500  13
   -1.0000 -0.8000 -0.3000  14
   -1.0000 -0.8000 -0.2500  15
   -1.0000 -0.8000 -0.2000  16
   -1.0000 -0.8000 -0.1500  17
   -1.0000 -0.8000 -0.1000  18
   -1.0000 -0.8000 -0.0500  19
   -1.0000 -0.8000 0.0000  20
   -1.0000 -0.8000 0.0500  21
   -1.0000 -0.8000 0.1000  22
   -1.0000 -0.8000 0.1500  23
   -1.0000 -0.8000 0.2000  24
   -1.0000 -0.8000 0.2500  25
   -1.0000 -0.8000 0.3000  26
   -1.0000 -0.8000 0.3500  27
   -1.0000 -0.8000 0.4000  28
   -1.0000 -0.8000 0.4500  29
   -1.0000 -0.8000 0.5000  30
   -1.0000 -0.8000 0.5500  31
   -1.0000 -0.8000 0.6000  32
   -1.0000 -0.8000 0.6500  33
   -1.0000 -0.8000 0.7000  34
   -1.0000 -0.8000 0.7500  35
   -1.0000 -0.8000 0.8000  36
   -1.0000 -0.8000 0.8500  37
   -1.0000 -0.8000 0.9000  38
   -1.0000 -0.8000 0.9500  39
   -1.0000 -0.8000 1.0000  40
