 &control
   calculation='scf'
   prefix='silicon',
   pseudo_dir = 'pseudo/',
   outdir =  'tmp/',
 /
 &system    
    ibrav=  2, celldm(1) =10.7, nat=  2, ntyp= 1,
    ecutwfc = 20.0, 
    nbnd = 8
 /
 &electrons
    mixing_beta = 0.6
 /
ATOMIC_SPECIES
 Si  28.086  Si.pz-vbc.UPF
ATOMIC_POSITIONS alat
 Si 0.00 0.00 0.00 
 Si 0.25 0.25 0.25 
K_POINTS tpiba
#  tpiba = k-points in units of 2pi/a
#  number of k-points

   100
   1.0000 1.0000 -1.0000   0
   1.0000 1.0000 -0.9798   1
   1.0000 1.0000 -0.9596   2
   1.0000 1.0000 -0.9394   3
   1.0000 1.0000 -0.9192   4
   1.0000 1.0000 -0.8990   5
   1.0000 1.0000 -0.8788   6
   1.0000 1.0000 -0.8586   7
   1.0000 1.0000 -0.8384   8
   1.0000 1.0000 -0.8182   9
   1.0000 1.0000 -0.7980  10
   1.0000 1.0000 -0.7778  11
   1.0000 1.0000 -0.7576  12
   1.0000 1.0000 -0.7374  13
   1.0000 1.0000 -0.7172  14
   1.0000 1.0000 -0.6970  15
   1.0000 1.0000 -0.6768  16
   1.0000 1.0000 -0.6566  17
   1.0000 1.0000 -0.6364  18
   1.0000 1.0000 -0.6162  19
   1.0000 1.0000 -0.5960  20
   1.0000 1.0000 -0.5758  21
   1.0000 1.0000 -0.5556  22
   1.0000 1.0000 -0.5354  23
   1.0000 1.0000 -0.5152  24
   1.0000 1.0000 -0.4949  25
   1.0000 1.0000 -0.4747  26
   1.0000 1.0000 -0.4545  27
   1.0000 1.0000 -0.4343  28
   1.0000 1.0000 -0.4141  29
   1.0000 1.0000 -0.3939  30
   1.0000 1.0000 -0.3737  31
   1.0000 1.0000 -0.3535  32
   1.0000 1.0000 -0.3333  33
   1.0000 1.0000 -0.3131  34
   1.0000 1.0000 -0.2929  35
   1.0000 1.0000 -0.2727  36
   1.0000 1.0000 -0.2525  37
   1.0000 1.0000 -0.2323  38
   1.0000 1.0000 -0.2121  39
   1.0000 1.0000 -0.1919  40
   1.0000 1.0000 -0.1717  41
   1.0000 1.0000 -0.1515  42
   1.0000 1.0000 -0.1313  43
   1.0000 1.0000 -0.1111  44
   1.0000 1.0000 -0.0909  45
   1.0000 1.0000 -0.0707  46
   1.0000 1.0000 -0.0505  47
   1.0000 1.0000 -0.0303  48
   1.0000 1.0000 -0.0101  49
   1.0000 1.0000 0.0101  50
   1.0000 1.0000 0.0303  51
   1.0000 1.0000 0.0505  52
   1.0000 1.0000 0.0707  53
   1.0000 1.0000 0.0909  54
   1.0000 1.0000 0.1111  55
   1.0000 1.0000 0.1313  56
   1.0000 1.0000 0.1515  57
   1.0000 1.0000 0.1717  58
   1.0000 1.0000 0.1919  59
   1.0000 1.0000 0.2121  60
   1.0000 1.0000 0.2323  61
   1.0000 1.0000 0.2525  62
   1.0000 1.0000 0.2727  63
   1.0000 1.0000 0.2929  64
   1.0000 1.0000 0.3131  65
   1.0000 1.0000 0.3333  66
   1.0000 1.0000 0.3535  67
   1.0000 1.0000 0.3737  68
   1.0000 1.0000 0.3939  69
   1.0000 1.0000 0.4141  70
   1.0000 1.0000 0.4343  71
   1.0000 1.0000 0.4545  72
   1.0000 1.0000 0.4747  73
   1.0000 1.0000 0.4949  74
   1.0000 1.0000 0.5152  75
   1.0000 1.0000 0.5354  76
   1.0000 1.0000 0.5556  77
   1.0000 1.0000 0.5758  78
   1.0000 1.0000 0.5960  79
   1.0000 1.0000 0.6162  80
   1.0000 1.0000 0.6364  81
   1.0000 1.0000 0.6566  82
   1.0000 1.0000 0.6768  83
   1.0000 1.0000 0.6970  84
   1.0000 1.0000 0.7172  85
   1.0000 1.0000 0.7374  86
   1.0000 1.0000 0.7576  87
   1.0000 1.0000 0.7778  88
   1.0000 1.0000 0.7980  89
   1.0000 1.0000 0.8182  90
   1.0000 1.0000 0.8384  91
   1.0000 1.0000 0.8586  92
   1.0000 1.0000 0.8788  93
   1.0000 1.0000 0.8990  94
   1.0000 1.0000 0.9192  95
   1.0000 1.0000 0.9394  96
   1.0000 1.0000 0.9596  97
   1.0000 1.0000 0.9798  98
   1.0000 1.0000 1.0000  99
