 &control
   calculation='scf'
   prefix='silicon',
   pseudo_dir = 'pseudo/',
   restart_mode='from_scratch',
   outdir =  'tmp/',
 /
 &system    
    ibrav=  2, celldm(1) =10.7, nat=  2, ntyp= 1,
    ecutwfc = 50.0, 
    nbnd = 8
 /
 &electrons
    conv_thr=1e-8
 /
ATOMIC_SPECIES
 Si  28.0855 Si.pbe-rrkj.UPF
ATOMIC_POSITIONS alat
 Si 0.00 0.00 0.00 
 Si 0.25 0.25 0.25 
K_POINTS tpiba
#  tpiba = k-points in units of 2pi/a
#  number of k-points

   20
   -1.0000 0.0000 0.0000   0
   -0.8947 0.0000 0.0000   1
   -0.7895 0.0000 0.0000   2
   -0.6842 0.0000 0.0000   3
   -0.5789 0.0000 0.0000   4
   -0.4737 0.0000 0.0000   5
   -0.3684 0.0000 0.0000   6
   -0.2632 0.0000 0.0000   7
   -0.1579 0.0000 0.0000   8
   -0.0526 0.0000 0.0000   9
   0.0526 0.0000 0.0000  10
   0.1579 0.0000 0.0000  11
   0.2632 0.0000 0.0000  12
   0.3684 0.0000 0.0000  13
   0.4737 0.0000 0.0000  14
   0.5789 0.0000 0.0000  15
   0.6842 0.0000 0.0000  16
   0.7895 0.0000 0.0000  17
   0.8947 0.0000 0.0000  18
   1.0000 0.0000 0.0000  19
